#--------------------------------------- 
#Input Generated for Space Group Testing 
#--------------------------------------- 
SystemLabel  ZrO2-Pure 
NumberOfAtoms    96  
NumberOfSpecies   3 
%block ChemicalSpeciesLabel
  1   8  O  
  2   40  Zr  
  3   -8  VO  
%endblock ChemicalSpeciesLabel
LatticeConstant 1.0 Ang 
%block LatticeVectors 
 10.354062   0.0   0.0   
 0.0   10.354062   0.0   
 0.0   0.0   10.354062   
%endblock LatticeVectors 
AtomicCoordinatesFormat Fractional
%block AtomicCoordinatesAndAtomicSpecies 
 0.12500000  0.12500000  0.12500000  3  1  VO
 0.12449360  0.37624578  0.37624578  1  2  O
 0.37624578  0.37624578  0.12449360  1  3  O
 0.37624578  0.12449360  0.37624578  1  4  O
 0.12500000  0.12500000  0.36599495  1  5  O
 0.12500000  0.36599495  0.12500000  1  6  O
 0.37374488  0.37374488  0.37374488  1  7  O
 0.36599495  0.12500000  0.12500000  1  8  O
 0.00205044  0.00205044  0.00205044  2  9  Zr
 0.00205044  0.24794956  0.24794956  2  10  Zr
 0.24794956  0.24794956  0.00205044  2  11  Zr
 0.24794956  0.00205044  0.24794956  2  12  Zr
 0.62500000  0.62500000  0.62500000  1  13  O
 0.62249732  0.87588685  0.87588685  1  14  O
 0.87588685  0.87588685  0.62249732  1  15  O
 0.87588685  0.62249732  0.87588685  1  16  O
 0.62500000  0.62500000  0.87370417  1  17  O
 0.62500001  0.87370417  0.62500000  1  18  O
 0.87221291  0.87221291  0.87221291  1  19  O
 0.87370417  0.62500000  0.62500000  1  20  O
 0.50048943  0.50048943  0.50048943  2  21  Zr
 0.50048943  0.74951058  0.74951058  2  22  Zr
 0.74951057  0.74951057  0.50048943  2  23  Zr
 0.74951057  0.50048943  0.74951057  2  24  Zr
 0.12500000  0.62500000  0.62500000  1  25  O
 0.12449360  0.87375422  0.87375422  1  26  O
 0.37411315  0.87588685  0.62750268  1  27  O
 0.37411315  0.62750268  0.87588685  1  28  O
 0.12500000  0.62500000  0.87501014  1  29  O
 0.12500000  0.87501014  0.62500000  1  30  O
 0.37374488  0.87625513  0.87625513  1  31  O
 0.37629583  0.62500000  0.62500000  1  32  O
 0.00059219  0.49957338  0.49957338  2  33  Zr
 0.00059219  0.75042662  0.75042662  2  34  Zr
 0.24940781  0.75042662  0.49957338  2  35  Zr
 0.24940781  0.49957338  0.75042662  2  36  Zr
 0.62500000  0.12500000  0.62500000  1  37  O
 0.62750268  0.37411315  0.87588685  1  38  O
 0.87588685  0.37411315  0.62750268  1  39  O
 0.87375422  0.12449360  0.87375422  1  40  O
 0.62500000  0.12500000  0.87501014  1  41  O
 0.62500000  0.37629583  0.62500000  1  42  O
 0.87625512  0.37374488  0.87625513  1  43  O
 0.87501014  0.12500000  0.62500000  1  44  O
 0.49957338  0.00059219  0.49957338  2  45  Zr
 0.49957338  0.24940781  0.75042662  2  46  Zr
 0.75042662  0.24940781  0.49957338  2  47  Zr
 0.75042662  0.00059219  0.75042662  2  48  Zr
 0.12500000  0.12500000  0.62500000  1  49  O
 0.12550640  0.37624578  0.87375422  1  50  O
 0.37411315  0.37411315  0.62249732  1  51  O
 0.37624578  0.12550640  0.87375422  1  52  O
 0.12500000  0.12500000  0.88400505  1  53  O
 0.12500000  0.37498986  0.62500000  1  54  O
 0.37778709  0.37778709  0.87221291  1  55  O
 0.37498986  0.12500000  0.62500000  1  56  O
 -0.00130292  -0.00130292  0.50027750  2  57  Zr
 -0.00130292  0.25130292  0.74972251  2  58  Zr
 0.25130292  0.25130292  0.50027750  2  59  Zr
 0.25130292  -0.00130292  0.74972250  2  60  Zr
 0.62500000  0.62500000  0.12500000  1  61  O
 0.62750268  0.87588685  0.37411315  1  62  O
 0.87375422  0.87375422  0.12449360  1  63  O
 0.87588685  0.62750268  0.37411315  1  64  O
 0.62500000  0.62500000  0.37629583  1  65  O
 0.62500000  0.87501014  0.12500000  1  66  O
 0.87625512  0.87625512  0.37374488  1  67  O
 0.87501014  0.62500000  0.12500000  1  68  O
 0.49957338  0.49957338  0.00059219  2  69  Zr
 0.49957338  0.75042662  0.24940781  2  70  Zr
 0.75042662  0.75042662  0.00059219  2  71  Zr
 0.75042662  0.49957338  0.24940782  2  72  Zr
 0.12500000  0.62500000  0.12500000  1  73  O
 0.12550640  0.87375422  0.37624578  1  74  O
 0.37624578  0.87375422  0.12550640  1  75  O
 0.37411315  0.62249732  0.37411315  1  76  O
 0.12500000  0.62500000  0.37498986  1  77  O
 0.12500000  0.88400505  0.12500000  1  78  O
 0.37778709  0.87221291  0.37778709  1  79  O
 0.37498986  0.62500000  0.12500000  1  80  O
 -0.00130292  0.50027750  -0.00130292  2  81  Zr
 -0.00130292  0.74972250  0.25130292  2  82  Zr
 0.25130291  0.74972251  -0.00130293  2  83  Zr
 0.25130292  0.50027750  0.25130292  2  84  Zr
 0.62500000  0.12500000  0.12500000  1  85  O
 0.62249732  0.37411315  0.37411315  1  86  O
 0.87375422  0.37624578  0.12550640  1  87  O
 0.87375422  0.12550640  0.37624578  1  88  O
 0.62500000  0.12500000  0.37498986  1  89  O
 0.62500000  0.37498986  0.12500000  1  90  O
 0.87221291  0.37778708  0.37778709  1  91  O
 0.88400505  0.12500000  0.12500000  1  92  O
 0.50027750  -0.00130292  -0.00130292  2  93  Zr
 0.50027750  0.25130292  0.25130292  2  94  Zr
 0.74972250  0.25130292  -0.00130292  2  95  Zr
 0.74972250  -0.00130292  0.25130292  2  96  Zr
%endblock AtomicCoordinatesAndAtomicSpecies
#===============================================================
