# Created by GDIS version 0.90.0
#ZrO2 pure without variable cell

SystemLabel      ZrO2-Pure

#----------------------------------------------------------
#                       Crystal flags
#----------------------------------------------------------
NumberOfAtoms    96

NumberOfSpecies  3

%block ChemicalSpeciesLabel
    1    8  O
    2   40  Zr
    3   -8  VO
%endblock ChemicalSpeciesLabel

LatticeConstant 1.0 Ang
%block LatticeVectors
       10.354062    0.000000    0.000000
        0.000000   10.354062    0.000000
        0.000000    0.000000   10.354062
%endblock LatticeVectors

AtomicCoordinatesFormat Fractional
%block AtomicCoordinatesAndAtomicSpecies
    0.12500000    0.12500000    0.12500000   3       1  VO
    0.12500000    0.37500000    0.37500000   1       2  O
    0.37500000    0.37500000    0.12500000   1       3  O
    0.37500000    0.12500000    0.37500000   1       4  O
    0.12500000    0.12500000    0.37500000   1       5  O
    0.12500000    0.37500000    0.12500000   1       6  O
    0.37500000    0.37500000    0.37500000   1       7  O
    0.37500000    0.12500000    0.12500000   1       8  O
    0.00000000    0.00000000    0.00000000   2       9  Zr
    0.00000000    0.25000000    0.25000000   2      10  Zr
    0.25000000    0.25000000    0.00000000   2      11  Zr
    0.25000000    0.00000000    0.25000000   2      12  Zr
    0.62500000    0.62500000    0.62500000   1      13  O
    0.62500000    0.87500000    0.87500000   1      14  O
    0.87500000    0.87500000    0.62500000   1      15  O
    0.87500000    0.62500000    0.87500000   1      16  O
    0.62500000    0.62500000    0.87500000   1      17  O
    0.62500000    0.87500000    0.62500000   1      18  O
    0.87500000    0.87500000    0.87500000   1      19  O
    0.87500000    0.62500000    0.62500000   1      20  O
    0.50000000    0.50000000    0.50000000   2      21  Zr
    0.50000000    0.75000000    0.75000000   2      22  Zr
    0.75000000    0.75000000    0.50000000   2      23  Zr
    0.75000000    0.50000000    0.75000000   2      24  Zr
    0.12500000    0.62500000    0.62500000   1      25  O
    0.12500000    0.87500000    0.87500000   1      26  O
    0.37500000    0.87500000    0.62500000   1      27  O
    0.37500000    0.62500000    0.87500000   1      28  O
    0.12500000    0.62500000    0.87500000   1      29  O
    0.12500000    0.87500000    0.62500000   1      30  O
    0.37500000    0.87500000    0.87500000   1      31  O
    0.37500000    0.62500000    0.62500000   1      32  O
    0.00000000    0.50000000    0.50000000   2      33  Zr
    0.00000000    0.75000000    0.75000000   2      34  Zr
    0.25000000    0.75000000    0.50000000   2      35  Zr
    0.25000000    0.50000000    0.75000000   2      36  Zr
    0.62500000    0.12500000    0.62500000   1      37  O
    0.62500000    0.37500000    0.87500000   1      38  O
    0.87500000    0.37500000    0.62500000   1      39  O
    0.87500000    0.12500000    0.87500000   1      40  O
    0.62500000    0.12500000    0.87500000   1      41  O
    0.62500000    0.37500000    0.62500000   1      42  O
    0.87500000    0.37500000    0.87500000   1      43  O
    0.87500000    0.12500000    0.62500000   1      44  O
    0.50000000    0.00000000    0.50000000   2      45  Zr
    0.50000000    0.25000000    0.75000000   2      46  Zr
    0.75000000    0.25000000    0.50000000   2      47  Zr
    0.75000000    0.00000000    0.75000000   2      48  Zr
    0.12500000    0.12500000    0.62500000   1      49  O
    0.12500000    0.37500000    0.87500000   1      50  O
    0.37500000    0.37500000    0.62500000   1      51  O
    0.37500000    0.12500000    0.87500000   1      52  O
    0.12500000    0.12500000    0.87500000   1      53  O
    0.12500000    0.37500000    0.62500000   1      54  O
    0.37500000    0.37500000    0.87500000   1      55  O
    0.37500000    0.12500000    0.62500000   1      56  O
    0.00000000    0.00000000    0.50000000   2      57  Zr
    0.00000000    0.25000000    0.75000000   2      58  Zr
    0.25000000    0.25000000    0.50000000   2      59  Zr
    0.25000000    0.00000000    0.75000000   2      60  Zr
    0.62500000    0.62500000    0.12500000   1      61  O
    0.62500000    0.87500000    0.37500000   1      62  O
    0.87500000    0.87500000    0.12500000   1      63  O
    0.87500000    0.62500000    0.37500000   1      64  O
    0.62500000    0.62500000    0.37500000   1      65  O
    0.62500000    0.87500000    0.12500000   1      66  O
    0.87500000    0.87500000    0.37500000   1      67  O
    0.87500000    0.62500000    0.12500000   1      68  O
    0.50000000    0.50000000    0.00000000   2      69  Zr
    0.50000000    0.75000000    0.25000000   2      70  Zr
    0.75000000    0.75000000    0.00000000   2      71  Zr
    0.75000000    0.50000000    0.25000000   2      72  Zr
    0.12500000    0.62500000    0.12500000   1      73  O
    0.12500000    0.87500000    0.37500000   1      74  O
    0.37500000    0.87500000    0.12500000   1      75  O
    0.37500000    0.62500000    0.37500000   1      76  O
    0.12500000    0.62500000    0.37500000   1      77  O
    0.12500000    0.87500000    0.12500000   1      78  O
    0.37500000    0.87500000    0.37500000   1      79  O
    0.37500000    0.62500000    0.12500000   1      80  O
    0.00000000    0.50000000    0.00000000   2      81  Zr
    0.00000000    0.75000000    0.25000000   2      82  Zr
    0.25000000    0.75000000    0.00000000   2      83  Zr
    0.25000000    0.50000000    0.25000000   2      84  Zr
    0.62500000    0.12500000    0.12500000   1      85  O
    0.62500000    0.37500000    0.37500000   1      86  O
    0.87500000    0.37500000    0.12500000   1      87  O
    0.87500000    0.12500000    0.37500000   1      88  O
    0.62500000    0.12500000    0.37500000   1      89  O
    0.62500000    0.37500000    0.12500000   1      90  O
    0.87500000    0.37500000    0.37500000   1      91  O
    0.87500000    0.12500000    0.12500000   1      92  O
    0.50000000    0.00000000    0.00000000   2      93  Zr
    0.50000000    0.25000000    0.25000000   2      94  Zr
    0.75000000    0.25000000    0.00000000   2      95  Zr
    0.75000000    0.00000000    0.25000000   2      96  Zr
%endblock AtomicCoordinatesAndAtomicSpecies

#----------------------------------------------------------
#                       Basis flags
#----------------------------------------------------------
%block PAO.Basis
 Zr   4
   n=5  0  2
        5.6054862       -0.6003580
        1.000   1.000
   n=4  1  2
        5.5279442       -0.4575023
        1.000           1.000
   n=5  1  1
        4.7571701
        1.000
   n=4  2  2
        6.0921820       -0.5609145
        1.000           1.000
O     3   -0.4158308
 n=2   0   2   E  25.2217485   -0.7787941
   4.1893036           -0.5955594
   1.00000             1.00000
 n=2   1   2   E  13.2644853   -0.7950761
   6.0475603           -0.6742187
   1.00000             1.00000
 n=3   2   1   E  45.9587470   -0.7957318
   3.2675257
   1.00000
VO     3   -0.4158308
 n=2   0   2   E  25.2217485   -0.7787941
   4.1893036           -0.5955594
   1.00000             1.00000
 n=2   1   2   E  13.2644853   -0.7950761
   6.0475603           -0.6742187
   1.00000             1.00000
 n=3   2   1   E  45.9587470   -0.7957318
   3.2675257
   1.00000
%endblock PAO.Basis
MeshCutoff 		600  Ry
XC.functional 		GGA
XC.authors 		revPBE
SpinPolarized           .true.
#----------------------------------------------------------
#                       DM flags
#----------------------------------------------------------
DM.MixingWeight 	0.20
DM.NumberPulay          4 
DM.UseSaveDM            .true.
DM.Tolerance 		1.0d-4
MaxSCFIterations 	150
#----------------------------------------------------------
#                       MD flags
#----------------------------------------------------------
MD.MaxCGDispl           0.1 Bohr
MD.TypeOfRun            CG
MD.VariableCell         .false.
MD.NumCGsteps           150
MD.MaxForceTol          0.001000 eV/Ang
MD.UseSaveXV            .true.
MD.UseSaveCG            .true.
#----------------------------------------------------------
#                       Electronic flags
#----------------------------------------------------------
ElectronicTemperature   5 K
NumberOfEigenStates     800
UseNewDiagk            .false.
Diag.ParallelOverK     .false.
LongOutput            
WriteMDHistory         .true.
WriteMDXmol            .true.
#----------------------------------------------------------
#                       BandStructure flags
#----------------------------------------------------------
#COOP.Write             .true.
#WFS.Write.For.Bands    .true. 
#BandLinesScale ReciprocalLatticeVectors
#%block BandLines
  1  0.000 0.000 0.000  \Gamma
 50  0.500 0.500 0.000  M
 50  0.500 0.500 0.500  R
 50  0.000 0.500 0.000  X
 50  0.000 0.000 0.000  \Gamma
#%endblock BandLines
#WriteKbands            .true.
#WriteBands             .true.

%block kgrid_Monkhorst_Pack
   3   0   0       0.00
   0   3   0       0.00
   0   0   3       0.00
%endblock kgrid_Monkhorst_Pack

SaveTotalPotential      .true.
