# Created by GDIS version 0.90.0
#ZrO2 pure without variable cell

SystemLabel     ZrO2-G

#----------------------------------------------------------
#                       Crystal flags
#----------------------------------------------------------
NumberOfAtoms    12

NumberOfSpecies  3

%block ChemicalSpeciesLabel
    1    8  O
    2   40  Zr
#    3   39  Y
    3   -8 VO
%endblock ChemicalSpeciesLabel
LatticeConstant 1.0 Ang
%block LatticeParameters
  5.177213    5.177213    5.177213  90.000000  90.000000  90.000000
%endblock LatticeParameters

AtomicCoordinatesFormat Fractional
%block AtomicCoordinatesAndAtomicSpecies
    0.25000000    0.25000000    0.25000000   3       1  VO
    0.75000000    0.75000000    0.75000000   1       2  O
    0.75000000    0.75000000    0.25000000   1       3  O
    0.25000000    0.25000000    0.75000000   1       4  O
    0.75000000    0.25000000    0.75000000   1       5  O
    0.25000000    0.75000000    0.25000000   1       6  O
    0.25000000    0.75000000    0.75000000   1       7  O
    0.75000000    0.25000000    0.25000000   1       8  O
   -0.00000000   -0.00000000   -0.00000000   2       9  Zr
   -0.00000000    0.50000000    0.50000000   2      10  Zr
    0.50000000   -0.00000000    0.50000000   2      11  Zr
    0.50000000    0.50000000   -0.00000000   2      12  Zr
%endblock AtomicCoordinatesAndAtomicSpecies
#%block Geometry.Constraints
#atom 1
#%endblock Geometry.Constraints
#----------------------------------------------------------
#                       Basis flags
#----------------------------------------------------------
%block PAO.Basis
 Zr   4
   n=5  0  2
        5.6054862       -0.6003580
        1.000   1.000
   n=4  1  2
        5.5279442       -0.4575023
        1.000           1.000
   n=5  1  1
        4.7571701
        1.000
   n=4  2  2
        6.0921820       -0.5609145
        1.000           1.000
O     3   -0.4158308
 n=2   0   2   E  25.2217485   -0.7787941
   4.1893036           -0.5955594
   1.00000             1.00000
 n=2   1   2   E  13.2644853   -0.7950761
   6.0475603           -0.6742187
   1.00000             1.00000
 n=3   2   1   E  45.9587470   -0.7957318
   3.2675257
   1.00000
VO     3   -0.4158308
 n=2   0   2   E  25.2217485   -0.7787941
   4.1893036           -0.5955594
   1.00000             1.00000
 n=2   1   2   E  13.2644853   -0.7950761
   6.0475603           -0.6742187
   1.00000             1.00000
 n=3   2   1   E  45.9587470   -0.7957318
   3.2675257
   1.00000
%endblock PAO.Basis
#Y    4      0.18480
3 n=5   0   2   E    54.30244     1.81665
#     3.73233     2.17478
#     1.00000     1.00000
# n=4   1   2   E    34.29848     2.87971
#     4.91942     2.39915
#     1.00000     1.00000
# n=5   1   1   E    42.47320     1.98078
#     3.52352
#     1.00000
# n=4   2   2   E    12.30267     2.52239
#     5.23907     3.07050
#     1.00000     1.00000
#%block kgrid_Monkhorst_Pack
#3    0    0     0.0
#0    3    0     0.0
#0    0    3     0.0
#%endblock kgrid_Monkhorst_Pack  
MeshCutoff 		600  Ry
XC.functional 		GGA
XC.authors 		revPBE
SpinPolarized           .true.
#----------------------------------------------------------
#                       DM flags
#----------------------------------------------------------
DM.MixingWeight 	0.20
DM.NumberPulay          4 
DM.UseSaveDM            .true.
DM.Tolerance 		1.0d-4
MaxSCFIterations 	150
#----------------------------------------------------------
#                       MD flags
#----------------------------------------------------------
MD.MaxCGDispl           0.1 Bohr
MD.TypeOfRun            CG
MD.VariableCell         .true.
MD.NumCGsteps           0
MD.MaxForceTol          0.04000 eV/Ang
MD.UseSaveXV            .true.
#----------------------------------------------------------
#                       Electronic flags
#----------------------------------------------------------
ElectronicTemperature   5 K
NumberOfEigenStates     800
#COOP.Write             .true.
#WFS.Write.For.Bands    .true. 
BandLinesScale ReciprocalLatticeVectors
%block BandLines
  1  0.000 0.000 0.000  \Gamma
 200  0.500 0.500 0.000  M
 200  0.000 0.500 0.000  X
 200  0.000 0.000 0.000  \Gamma
 200  0.500 0.500 0.500  R
 200  0.000 0.000 0.000  \Gamma
%endblock BandLines
UseNewDiagk            .false.
Diag.ParallelOverK     .false.
LongOutput            
WriteMDHistory         .true.
WriteMDXmol            .true.
%block kgrid_Monkhorst_Pack
   9   0   0       0.00
   0   9   0       0.00
   0   0   9       0.00
%endblock kgrid_Monkhorst_Pack
SaveTotalPotential T
SaveRho T
